case=2, variables=390, constraints=194, nnz=912
Running HiGHS 1.8.0 (git hash: 222cce7): Copyright (c) 2024 HiGHS under MIT licence terms
Coefficient ranges:
  Matrix [1e+00, 1e+00]
  Cost   [0e+00, 0e+00]
  Bound  [1e+00, 1e+00]
  RHS    [1e+00, 6e+00]
Presolving model
12 rows, 54 cols, 108 nonzeros  0s
9 rows, 36 cols, 72 nonzeros  0s
Objective function is integral with scale 1

Solving MIP model with:
   9 rows
   36 cols (36 binary, 0 integer, 0 implied int., 0 continuous)
   72 nonzeros
MIP-Timing:      0.0006 - starting analytic centre calculation

Src: B => Branching; C => Central rounding; F => Feasibility pump; H => Heuristic; L => Sub-MIP;
     P => Empty MIP; R => Randomized rounding; S => Solve LP; T => Evaluate node; U => Unbounded;
     z => Trivial zero; l => Trivial lower; u => Trivial upper; p => Trivial point

        Nodes      |    B&B Tree     |            Objective Bounds              |  Dynamic Constraints |       Work
Src  Proc. InQueue |  Leaves   Expl. | BestBound       BestSol              Gap |   Cuts   InLp Confl. | LpIters     Time

         0       0         0   0.00%   0               inf                  inf        0      0      0         0     0.0s
 T       0       0         0 100.00%   0               0                  0.00%        0      0      0        38     0.0s
         1       0         1 100.00%   0               0                  0.00%        0      0      0        38     0.0s

Solving report
  Status            Optimal
  Primal bound      0
  Dual bound        0
  Gap               0%
  P-D integral      0
  Solution status   feasible
                    0 (objective)
                    0 (bound viol.)
                    0 (int. viol.)
                    0 (row viol.)
  Timing            0.00 (total)
                    0.00 (presolve)
                    0.00 (solve)
                    0.00 (postsolve)
  Max sub-MIP depth 0
  Nodes             1
  Repair LPs        0 (0 feasible; 0 iterations)
  LP iterations     38 (total)
                    0 (strong br.)
                    0 (separation)
                    0 (heuristics)
status 0
message Optimization terminated successfully. (HiGHS Status 7: Optimal)
success True
fun 0.0
degrees [6, 6, 6, 6, 6, 6, 6, 6, 6, 6, 6, 6, 6]
adjacency
0111111000000
0000100110111
0100000110111
0110010111000
0011001111000
0110101011000
0111000111000
1000010001111
1000000101111
1110000000111
1001111000001
1001111000100
1001111000010
covers
0 [1, 2] [7, 8, 9] 5
1 [] [] 0
2 [] [] 0
3 [] [] 0
4 [] [] 0
5 [] [] 0
6 [] [] 0
7 [] [] 0
8 [] [] 0
9 [] [] 0
10 [] [] 0
11 [] [] 0
12 [] [] 0
